presolving:
(round 1, fast)       201 del vars, 0 del conss, 0 add conss, 0 chg bounds, 0 chg sides, 0 chg coeffs, 0 upgd conss, 0 impls, 400 clqs
(round 2, exhaustive) 201 del vars, 0 del conss, 0 add conss, 0 chg bounds, 0 chg sides, 0 chg coeffs, 400 upgd conss, 0 impls, 400 clqs
   (1.0s) probing: 51/39800 (0.1%) - 0 fixings, 0 aggregations, 0 implications, 0 bound changes
   (1.0s) probing aborted: 50/50 successive totally useless probings
   Deactivated symmetry handling methods, since SCIP was built without symmetry detector (SYM=none).
presolving (3 rounds: 3 fast, 2 medium, 2 exhaustive):
 201 deleted vars, 0 deleted constraints, 0 added constraints, 0 tightened bounds, 0 added holes, 0 changed sides, 0 changed coefficients
 0 implications, 400 cliques
presolved problem has 39999 variables (39800 bin, 0 int, 0 impl, 199 cont) and 39802 constraints
    400 constraints of type <setppc>
  39402 constraints of type <linear>
Presolving Time: 2.00

 time | node  | left  |LP iter|LP it/n|mem/heur|mdpt |vars |cons |rows |cuts |sepa|confs|strbr|  dualbound   | primalbound  |  gap   | compl. 
p 3.0s|     1 |     0 |   201 |     - | vbounds|   0 |  39k|  39k|  39k|   0 |  0 |   6 |   0 | 0.000000e+00 | 3.238925e+05 |    Inf | unknown
  4.0s|     1 |     0 |   840 |     - |   362M |   0 |  39k|  39k|  39k|   0 |  0 |   6 |   0 | 2.344725e+04 | 3.238925e+05 |1281.37%| unknown
  5.0s|     1 |     0 |  1028 |     - |   372M |   0 |  39k|  39k|  39k| 165 |  1 |   6 |   0 | 2.492469e+04 | 3.238925e+05 |1199.48%| unknown
  7.0s|     1 |     0 |  1183 |     - |   378M |   0 |  39k|  39k|  40k| 260 |  2 |   6 |   0 | 2.557074e+04 | 3.238925e+05 |1166.65%| unknown
  8.0s|     1 |     0 |  1277 |     - |   385M |   0 |  39k|  39k|  40k| 306 |  3 |   6 |   0 | 2.703220e+04 | 3.238925e+05 |1098.17%| unknown
  9.0s|     1 |     0 |  1288 |     - |   390M |   0 |  39k|  39k|  40k| 310 |  4 |   6 |   0 | 2.711386e+04 | 3.238925e+05 |1094.56%| unknown
 10.0s|     1 |     0 |  1361 |     - |   394M |   0 |  39k|  39k|  40k| 344 |  5 |   6 |   0 | 2.720419e+04 | 3.238925e+05 |1090.60%| unknown
 12.0s|     1 |     0 |  1385 |     - |   403M |   0 |  39k|  39k|  40k| 362 |  6 |   6 |   0 | 2.729478e+04 | 3.238925e+05 |1086.65%| unknown
 13.0s|     1 |     0 |  1395 |     - |   407M |   0 |  39k|  39k|  40k| 370 |  7 |   6 |   0 | 2.729478e+04 | 3.238925e+05 |1086.65%| unknown
 14.0s|     1 |     0 |  1429 |     - |   412M |   0 |  39k|  39k|  40k| 384 |  8 |   6 |   0 | 2.733783e+04 | 3.238925e+05 |1084.78%| unknown
 15.0s|     1 |     0 |  1474 |     - |   418M |   0 |  39k|  39k|  40k| 398 |  9 |   6 |   0 | 2.735235e+04 | 3.238925e+05 |1084.15%| unknown
 17.0s|     1 |     0 |  1497 |     - |   423M |   0 |  39k|  39k|  40k| 411 | 10 |   6 |   0 | 2.735622e+04 | 3.238925e+05 |1083.98%| unknown
 18.0s|     1 |     0 |  1527 |     - |   427M |   0 |  39k|  39k|  40k| 416 | 11 |   6 |   0 | 2.737113e+04 | 3.238925e+05 |1083.34%| unknown
 19.0s|     1 |     0 |  1572 |     - |   431M |   0 |  39k|  39k|  40k| 435 | 12 |   6 |   0 | 2.740466e+04 | 3.238925e+05 |1081.89%| unknown
 20.0s|     1 |     0 |  1611 |     - |   438M |   0 |  39k|  39k|  40k| 446 | 13 |   6 |   0 | 2.742045e+04 | 3.238925e+05 |1081.21%| unknown
 time | node  | left  |LP iter|LP it/n|mem/heur|mdpt |vars |cons |rows |cuts |sepa|confs|strbr|  dualbound   | primalbound  |  gap   | compl. 
 23.0s|     1 |     0 |  1640 |     - |   442M |   0 |  39k|  39k|  40k| 455 | 14 |   6 |   0 | 2.742878e+04 | 3.238925e+05 |1080.85%| unknown
 24.0s|     1 |     0 |  1676 |     - |   446M |   0 |  39k|  39k|  40k| 465 | 15 |   6 |   0 | 2.747759e+04 | 3.238925e+05 |1078.75%| unknown
 25.0s|     1 |     0 |  1696 |     - |   450M |   0 |  39k|  39k|  40k| 473 | 16 |   6 |   0 | 2.748259e+04 | 3.238925e+05 |1078.54%| unknown
 26.0s|     1 |     0 |  1724 |     - |   454M |   0 |  39k|  39k|  40k| 487 | 17 |   6 |   0 | 2.748508e+04 | 3.238925e+05 |1078.43%| unknown
 27.0s|     1 |     0 |  1750 |     - |   460M |   0 |  39k|  39k|  40k| 496 | 18 |   6 |   0 | 2.750172e+04 | 3.238925e+05 |1077.72%| unknown
 29.0s|     1 |     0 |  1765 |     - |   460M |   0 |  39k|  39k|  40k| 504 | 19 |   6 |   0 | 2.750172e+04 | 3.238925e+05 |1077.72%| unknown
 32.0s|     1 |     0 |  1776 |     - |   464M |   0 |  39k|  39k|  40k| 509 | 20 |   6 |   0 | 2.750172e+04 | 3.238925e+05 |1077.72%| unknown
 33.0s|     1 |     0 |  1778 |     - |   464M |   0 |  39k|  39k|  40k| 512 | 21 |   6 |   0 | 2.750172e+04 | 3.238925e+05 |1077.72%| unknown
 33.0s|     1 |     0 |  1779 |     - |   464M |   0 |  39k|  39k|  40k| 513 | 22 |   6 |   0 | 2.750172e+04 | 3.238925e+05 |1077.72%| unknown
 35.0s|     1 |     0 |  1789 |     - |   464M |   0 |  39k|  39k|  40k| 519 | 24 |   6 |   0 | 2.750172e+04 | 3.238925e+05 |1077.72%| unknown
  134s|     1 |     2 | 10162 |     - |   472M |   0 |  39k|  39k|  40k| 519 | 26 |   8 |  20 | 2.753989e+04 | 3.238925e+05 |1076.09%| unknown

SCIP Status        : solving was interrupted [time limit reached]
Solving Time (sec) : 600.00
Solving Nodes      : 13
Primal Bound       : +3.23892522886347e+05 (1 solutions)
Dual Bound         : +2.75398882412724e+04
Gap                : 1076.09 %
Trying to solve problem with MTZ Solver Method...
Starting Solver, time limit setted to 10 minutes
Route:  [[0, 2], [1, 3], [2, 1], [3, 4], [4, 5], [5, 6], [6, 7], [7, 8], [8, 9], [9, 10], [10, 11], [11, 12], [12, 13], [13, 14], [14, 15], [15, 16], [16, 17], [17, 18], [18, 19], [19, 20], [20, 21], [21, 22], [22, 23], [23, 24], [24, 25], [25, 26], [26, 27], [27, 28], [28, 29], [29, 30], [30, 31], [31, 32], [32, 33], [33, 34], [34, 35], [35, 36], [36, 37], [37, 38], [38, 39], [39, 40], [40, 41], [41, 42], [42, 43], [43, 44], [44, 45], [45, 46], [46, 47], [47, 48], [48, 49], [49, 50], [50, 51], [51, 52], [52, 53], [53, 54], [54, 55], [55, 56], [56, 57], [57, 58], [58, 59], [59, 60], [60, 61], [61, 62], [62, 63], [63, 64], [64, 65], [65, 66], [66, 67], [67, 68], [68, 69], [69, 70], [70, 71], [71, 72], [72, 73], [73, 74], [74, 75], [75, 76], [76, 77], [77, 78], [78, 79], [79, 80], [80, 81], [81, 82], [82, 83], [83, 84], [84, 85], [85, 86], [86, 87], [87, 88], [88, 89], [89, 90], [90, 91], [91, 92], [92, 93], [93, 94], [94, 95], [95, 96], [96, 97], [97, 98], [98, 99], [99, 100], [100, 101], [101, 102], [102, 103], [103, 104], [104, 105], [105, 106], [106, 107], [107, 108], [108, 109], [109, 110], [110, 111], [111, 112], [112, 113], [113, 114], [114, 115], [115, 116], [116, 117], [117, 118], [118, 119], [119, 120], [120, 121], [121, 122], [122, 123], [123, 124], [124, 125], [125, 126], [126, 127], [127, 128], [128, 129], [129, 130], [130, 131], [131, 132], [132, 133], [133, 134], [134, 135], [135, 136], [136, 137], [137, 138], [138, 139], [139, 140], [140, 141], [141, 142], [142, 143], [143, 144], [144, 145], [145, 146], [146, 147], [147, 148], [148, 149], [149, 150], [150, 151], [151, 152], [152, 153], [153, 154], [154, 155], [155, 156], [156, 157], [157, 158], [158, 159], [159, 160], [160, 161], [161, 162], [162, 163], [163, 164], [164, 165], [165, 166], [166, 167], [167, 168], [168, 169], [169, 170], [170, 171], [171, 172], [172, 173], [173, 174], [174, 175], [175, 176], [176, 177], [177, 178], [178, 179], [179, 180], [180, 181], [181, 182], [182, 183], [183, 184], [184, 185], [185, 186], [186, 187], [187, 188], [188, 189], [189, 190], [190, 191], [191, 192], [192, 193], [193, 194], [194, 195], [195, 196], [196, 197], [197, 198], [198, 199], [199, 0]]
An Otimal Solution was found, yay!
Objective value: 323892.5
Problem solved in 10751 iterations
Problem solved in 13 nodes
Final Route Configuration succesfully created at:
data/routes/kroB200.csv
